NAME : custom
COMMENT : Custom points
TYPE : TSP
DIMENSION : 28
EDGE_WEIGHT_TYPE : EUC_2D
NODE_COORD_SECTION
1 55 8
2 35 33
3 13 62
4 28 77
5 18 55
6 16 42
7 59 56
8 46 61
9 64 85
10 85 62
11 82 44
12 57 33
13 86 21
14 82 71
15 39 77
16 10 82
17 22 52
18 7 12
19 22 11
20 23 31
21 38 11
22 39 43
23 31 60
24 71 67
25 76 25
26 93 10
27 76 7
28 55 8
EOF
